NAME: random-5-14459
TYPE: TSP
COMMENT: size=5 seed=14459
DIMENSION: 12
EDGE_WEIGHT_TYPE: EUC_2D
NODE_COORD_SECTION
+0 413 344
-0 413 344
+1 29 93
-1 736 697
+2 470 873
-2 345 765
+3 770 425
-3 902 151
+4 605 794
-4 239 906
+5 785 861
-5 579 972
PRECEDENCE_SECTION
+0 -0
+1 -1
+2 -2
+3 -3
+4 -4
+5 -5
EOF
